c "794824.clq"
p edge 252 3776
e 1 17
e 1 22
e 1 23
e 1 24
e 1 25
e 1 30
e 1 57
e 1 60
e 1 61
e 1 69
e 1 74
e 1 82
e 1 84
e 1 99
e 1 107
e 1 114
e 1 134
e 1 138
e 1 141
e 1 155
e 1 220
e 1 227
e 2 17
e 2 18
e 2 19
e 2 20
e 2 23
e 2 24
e 2 27
e 2 32
e 2 33
e 2 37
e 2 52
e 2 71
e 2 72
e 2 75
e 2 85
e 2 97
e 2 101
e 2 110
e 2 112
e 2 114
e 2 119
e 2 121
e 2 132
e 2 151
e 2 155
e 2 156
e 2 159
e 2 166
e 2 169
e 2 180
e 2 185
e 2 220
e 2 221
e 3 17
e 3 18
e 3 19
e 3 20
e 3 21
e 3 22
e 3 25
e 3 29
e 3 32
e 3 35
e 3 38
e 3 39
e 3 40
e 3 45
e 3 46
e 3 48
e 3 49
e 3 50
e 3 54
e 3 56
e 3 59
e 3 60
e 3 66
e 3 75
e 3 79
e 3 89
e 3 91
e 3 94
e 3 99
e 3 105
e 3 109
e 3 110
e 3 111
e 3 112
e 3 118
e 3 122
e 3 129
e 3 131
e 3 133
e 3 136
e 3 142
e 3 145
e 3 164
e 3 165
e 3 169
e 3 178
e 3 182
e 3 184
e 3 191
e 3 200
e 3 201
e 3 209
e 3 228
e 3 230
e 3 234
e 3 241
e 3 252
e 4 17
e 4 18
e 4 19
e 4 20
e 4 21
e 4 22
e 4 23
e 4 24
e 4 27
e 4 30
e 4 31
e 4 33
e 4 35
e 4 36
e 4 39
e 4 40
e 4 41
e 4 43
e 4 45
e 4 49
e 4 50
e 4 68
e 4 72
e 4 75
e 4 82
e 4 98
e 4 122
e 4 163
e 4 172
e 4 178
e 4 191
e 4 202
e 4 207
e 4 208
e 4 232
e 4 233
e 4 238
e 5 17
e 5 18
e 5 19
e 5 20
e 5 21
e 5 22
e 5 24
e 5 25
e 5 26
e 5 27
e 5 28
e 5 29
e 5 30
e 5 31
e 5 39
e 5 42
e 5 46
e 5 58
e 5 61
e 5 62
e 5 64
e 5 66
e 5 69
e 5 70
e 5 73
e 5 77
e 5 78
e 5 79
e 5 82
e 5 84
e 5 85
e 5 106
e 5 107
e 5 112
e 5 122
e 5 125
e 5 136
e 5 146
e 5 162
e 5 163
e 5 175
e 5 183
e 5 186
e 5 192
e 5 193
e 5 196
e 5 200
e 5 218
e 5 230
e 5 241
e 5 244
e 6 17
e 6 18
e 6 19
e 6 20
e 6 21
e 6 25
e 6 26
e 6 27
e 6 34
e 6 45
e 6 46
e 6 48
e 6 62
e 6 95
e 6 102
e 6 105
e 6 116
e 6 125
e 6 137
e 6 142
e 6 179
e 6 185
e 6 206
e 6 213
e 6 216
e 6 245
e 6 247
e 7 17
e 7 18
e 7 19
e 7 20
e 7 21
e 7 22
e 7 23
e 7 24
e 7 25
e 7 26
e 7 27
e 7 28
e 7 29
e 7 34
e 7 38
e 7 43
e 7 45
e 7 53
e 7 59
e 7 61
e 7 63
e 7 64
e 7 66
e 7 70
e 7 72
e 7 75
e 7 83
e 7 86
e 7 89
e 7 97
e 7 101
e 7 102
e 7 106
e 7 115
e 7 119
e 7 134
e 7 139
e 7 187
e 7 192
e 7 201
e 7 202
e 7 209
e 7 210
e 7 211
e 7 216
e 7 217
e 7 220
e 7 251
e 8 17
e 8 18
e 8 21
e 8 23
e 8 26
e 8 28
e 8 31
e 8 32
e 8 33
e 8 34
e 8 35
e 8 37
e 8 43
e 8 44
e 8 45
e 8 50
e 8 51
e 8 53
e 8 55
e 8 56
e 8 65
e 8 69
e 8 71
e 8 73
e 8 82
e 8 87
e 8 89
e 8 93
e 8 104
e 8 106
e 8 116
e 8 121
e 8 123
e 8 124
e 8 144
e 8 148
e 8 152
e 8 166
e 8 183
e 8 188
e 8 193
e 8 239
e 9 17
e 9 18
e 9 19
e 9 20
e 9 21
e 9 22
e 9 24
e 9 25
e 9 26
e 9 27
e 9 29
e 9 30
e 9 32
e 9 37
e 9 38
e 9 40
e 9 42
e 9 45
e 9 46
e 9 47
e 9 48
e 9 51
e 9 52
e 9 53
e 9 57
e 9 58
e 9 62
e 9 68
e 9 75
e 9 78
e 9 81
e 9 85
e 9 86
e 9 91
e 9 94
e 9 99
e 9 100
e 9 103
e 9 104
e 9 106
e 9 110
e 9 112
e 9 117
e 9 123
e 9 126
e 9 127
e 9 128
e 9 135
e 9 138
e 9 153
e 9 155
e 9 158
e 9 165
e 9 169
e 9 173
e 9 174
e 9 181
e 9 185
e 9 192
e 9 196
e 9 199
e 9 206
e 9 217
e 9 218
e 9 228
e 9 231
e 9 233
e 9 244
e 9 249
e 10 17
e 10 18
e 10 19
e 10 20
e 10 21
e 10 22
e 10 23
e 10 24
e 10 26
e 10 31
e 10 32
e 10 35
e 10 47
e 10 50
e 10 54
e 10 60
e 10 79
e 10 81
e 10 82
e 10 94
e 10 100
e 10 101
e 10 106
e 10 109
e 10 115
e 10 120
e 10 132
e 10 134
e 10 146
e 10 158
e 10 173
e 10 183
e 10 215
e 10 225
e 10 244
e 11 17
e 11 18
e 11 19
e 11 20
e 11 21
e 11 22
e 11 23
e 11 24
e 11 25
e 11 26
e 11 28
e 11 30
e 11 33
e 11 43
e 11 49
e 11 51
e 11 52
e 11 54
e 11 60
e 11 62
e 11 65
e 11 67
e 11 72
e 11 73
e 11 75
e 11 76
e 11 91
e 11 95
e 11 100
e 11 106
e 11 121
e 11 128
e 11 135
e 11 137
e 11 149
e 11 160
e 11 166
e 11 174
e 11 194
e 11 229
e 11 238
e 11 247
e 12 17
e 12 18
e 12 19
e 12 20
e 12 23
e 12 28
e 12 32
e 12 47
e 12 48
e 12 54
e 12 77
e 12 89
e 12 92
e 12 133
e 12 178
e 12 180
e 12 199
e 13 17
e 13 18
e 13 19
e 13 20
e 13 21
e 13 22
e 13 26
e 13 31
e 13 39
e 13 42
e 13 43
e 13 45
e 13 65
e 13 67
e 13 70
e 13 73
e 13 78
e 13 80
e 13 89
e 13 95
e 13 96
e 13 107
e 13 115
e 13 127
e 13 129
e 13 146
e 13 176
e 13 227
e 13 228
e 13 230
e 13 234
e 13 241
e 13 252
e 14 17
e 14 18
e 14 19
e 14 20
e 14 21
e 14 22
e 14 23
e 14 25
e 14 26
e 14 28
e 14 29
e 14 30
e 14 32
e 14 33
e 14 34
e 14 36
e 14 37
e 14 38
e 14 39
e 14 41
e 14 48
e 14 49
e 14 50
e 14 51
e 14 52
e 14 53
e 14 54
e 14 60
e 14 63
e 14 65
e 14 66
e 14 70
e 14 72
e 14 81
e 14 85
e 14 88
e 14 89
e 14 90
e 14 100
e 14 111
e 14 120
e 14 121
e 14 132
e 14 148
e 14 152
e 14 156
e 14 158
e 14 179
e 14 182
e 14 185
e 14 192
e 14 193
e 14 196
e 14 199
e 14 202
e 14 218
e 14 233
e 14 234
e 14 241
e 14 246
e 14 247
e 15 17
e 15 18
e 15 19
e 15 20
e 15 22
e 15 23
e 15 24
e 15 27
e 15 28
e 15 29
e 15 31
e 15 32
e 15 33
e 15 35
e 15 36
e 15 38
e 15 42
e 15 44
e 15 55
e 15 69
e 15 70
e 15 74
e 15 81
e 15 85
e 15 95
e 15 96
e 15 98
e 15 111
e 15 113
e 15 120
e 15 126
e 15 127
e 15 128
e 15 140
e 15 146
e 15 149
e 15 152
e 15 155
e 15 163
e 15 194
e 15 230
e 15 244
e 16 17
e 16 18
e 16 19
e 16 21
e 16 25
e 16 35
e 16 37
e 16 39
e 16 40
e 16 42
e 16 44
e 16 46
e 16 57
e 16 60
e 16 62
e 16 63
e 16 68
e 16 69
e 16 83
e 16 85
e 16 86
e 16 92
e 16 101
e 16 104
e 16 106
e 16 108
e 16 111
e 16 125
e 16 130
e 16 131
e 16 133
e 16 144
e 16 145
e 16 155
e 16 157
e 16 172
e 16 186
e 16 208
e 16 214
e 16 229
e 16 233
e 17 18
e 17 19
e 17 20
e 17 21
e 17 22
e 17 23
e 17 24
e 17 25
e 17 26
e 17 27
e 17 28
e 17 29
e 17 31
e 17 34
e 17 35
e 17 36
e 17 37
e 17 38
e 17 39
e 17 40
e 17 41
e 17 43
e 17 45
e 17 46
e 17 48
e 17 50
e 17 55
e 17 57
e 17 59
e 17 61
e 17 64
e 17 66
e 17 68
e 17 72
e 17 74
e 17 76
e 17 77
e 17 78
e 17 81
e 17 90
e 17 95
e 17 98
e 17 99
e 17 101
e 17 103
e 17 106
e 17 107
e 17 111
e 17 112
e 17 114
e 17 115
e 17 116
e 17 117
e 17 119
e 17 120
e 17 128
e 17 129
e 17 131
e 17 136
e 17 138
e 17 139
e 17 141
e 17 142
e 17 150
e 17 155
e 17 158
e 17 161
e 17 163
e 17 174
e 17 179
e 17 182
e 17 185
e 17 186
e 17 198
e 17 202
e 17 207
e 17 208
e 17 219
e 17 223
e 17 242
e 17 251
e 18 19
e 18 20
e 18 21
e 18 22
e 18 23
e 18 24
e 18 25
e 18 26
e 18 27
e 18 28
e 18 29
e 18 30
e 18 32
e 18 33
e 18 34
e 18 35
e 18 36
e 18 37
e 18 38
e 18 42
e 18 44
e 18 46
e 18 47
e 18 48
e 18 50
e 18 51
e 18 52
e 18 59
e 18 60
e 18 61
e 18 64
e 18 65
e 18 67
e 18 72
e 18 80
e 18 81
e 18 84
e 18 86
e 18 89
e 18 92
e 18 94
e 18 95
e 18 96
e 18 97
e 18 99
e 18 100
e 18 102
e 18 103
e 18 109
e 18 110
e 18 113
e 18 118
e 18 121
e 18 131
e 18 132
e 18 136
e 18 137
e 18 142
e 18 151
e 18 156
e 18 159
e 18 161
e 18 172
e 18 173
e 18 174
e 18 187
e 18 190
e 18 193
e 18 198
e 18 199
e 18 204
e 18 221
e 18 227
e 18 228
e 18 235
e 18 248
e 18 252
e 19 20
e 19 21
e 19 22
e 19 23
e 19 24
e 19 25
e 19 26
e 19 27
e 19 28
e 19 29
e 19 30
e 19 31
e 19 32
e 19 34
e 19 35
e 19 36
e 19 37
e 19 41
e 19 48
e 19 51
e 19 52
e 19 54
e 19 56
e 19 57
e 19 61
e 19 64
e 19 65
e 19 69
e 19 70
e 19 71
e 19 78
e 19 80
e 19 81
e 19 82
e 19 92
e 19 100
e 19 105
e 19 111
e 19 115
e 19 117
e 19 119
e 19 122
e 19 124
e 19 126
e 19 130
e 19 131
e 19 132
e 19 133
e 19 136
e 19 139
e 19 140
e 19 141
e 19 142
e 19 145
e 19 148
e 19 150
e 19 151
e 19 156
e 19 157
e 19 166
e 19 167
e 19 168
e 19 176
e 19 178
e 19 179
e 19 180
e 19 181
e 19 189
e 19 191
e 19 195
e 19 200
e 19 204
e 19 207
e 19 216
e 19 222
e 19 226
e 19 237
e 19 238
e 19 239
e 19 241
e 19 246
e 19 249
e 20 21
e 20 22
e 20 23
e 20 24
e 20 25
e 20 27
e 20 29
e 20 31
e 20 33
e 20 34
e 20 38
e 20 42
e 20 43
e 20 44
e 20 45
e 20 47
e 20 48
e 20 52
e 20 60
e 20 63
e 20 64
e 20 75
e 20 77
e 20 80
e 20 83
e 20 84
e 20 85
e 20 91
e 20 96
e 20 102
e 20 104
e 20 105
e 20 111
e 20 112
e 20 121
e 20 126
e 20 130
e 20 143
e 20 147
e 20 151
e 20 154
e 20 156
e 20 167
e 20 176
e 20 177
e 20 189
e 20 190
e 20 204
e 20 205
e 20 209
e 20 216
e 20 221
e 20 227
e 20 231
e 20 239
e 21 22
e 21 23
e 21 24
e 21 25
e 21 26
e 21 27
e 21 29
e 21 30
e 21 32
e 21 33
e 21 34
e 21 35
e 21 36
e 21 37
e 21 38
e 21 39
e 21 40
e 21 41
e 21 42
e 21 43
e 21 45
e 21 46
e 21 47
e 21 48
e 21 52
e 21 53
e 21 54
e 21 55
e 21 56
e 21 57
e 21 59
e 21 62
e 21 63
e 21 64
e 21 65
e 21 66
e 21 67
e 21 68
e 21 71
e 21 72
e 21 75
e 21 79
e 21 84
e 21 92
e 21 96
e 21 98
e 21 101
e 21 103
e 21 109
e 21 111
e 21 113
e 21 118
e 21 119
e 21 128
e 21 131
e 21 132
e 21 133
e 21 138
e 21 139
e 21 151
e 21 152
e 21 154
e 21 161
e 21 164
e 21 165
e 21 175
e 21 177
e 21 178
e 21 187
e 21 202
e 21 211
e 21 217
e 21 218
e 21 230
e 21 232
e 21 236
e 21 238
e 21 240
e 21 247
e 21 250
e 21 252
e 22 23
e 22 24
e 22 25
e 22 28
e 22 29
e 22 30
e 22 31
e 22 33
e 22 36
e 22 41
e 22 42
e 22 43
e 22 44
e 22 46
e 22 48
e 22 49
e 22 50
e 22 55
e 22 56
e 22 58
e 22 60
e 22 61
e 22 62
e 22 64
e 22 65
e 22 66
e 22 67
e 22 69
e 22 71
e 22 81
e 22 86
e 22 90
e 22 91
e 22 93
e 22 95
e 22 99
e 22 103
e 22 111
e 22 113
e 22 114
e 22 118
e 22 120
e 22 122
e 22 123
e 22 164
e 22 166
e 22 174
e 22 175
e 22 179
e 22 187
e 22 191
e 22 193
e 22 200
e 22 203
e 22 204
e 22 208
e 22 212
e 22 225
e 22 233
e 23 24
e 23 25
e 23 26
e 23 27
e 23 28
e 23 29
e 23 30
e 23 31
e 23 32
e 23 33
e 23 34
e 23 35
e 23 36
e 23 37
e 23 40
e 23 41
e 23 43
e 23 46
e 23 48
e 23 49
e 23 50
e 23 52
e 23 53
e 23 55
e 23 59
e 23 60
e 23 61
e 23 65
e 23 67
e 23 68
e 23 76
e 23 77
e 23 78
e 23 79
e 23 81
e 23 82
e 23 86
e 23 88
e 23 96
e 23 102
e 23 107
e 23 117
e 23 121
e 23 122
e 23 123
e 23 124
e 23 130
e 23 135
e 23 137
e 23 145
e 23 155
e 23 157
e 23 159
e 23 162
e 23 172
e 23 174
e 23 176
e 23 180
e 23 181
e 23 182
e 23 189
e 23 198
e 23 201
e 23 205
e 23 208
e 23 209
e 23 219
e 23 223
e 23 228
e 23 232
e 23 233
e 23 235
e 23 239
e 23 242
e 23 250
e 24 26
e 24 27
e 24 28
e 24 29
e 24 30
e 24 31
e 24 33
e 24 34
e 24 36
e 24 39
e 24 42
e 24 43
e 24 44
e 24 45
e 24 49
e 24 50
e 24 51
e 24 52
e 24 56
e 24 58
e 24 59
e 24 60
e 24 64
e 24 67
e 24 69
e 24 74
e 24 75
e 24 76
e 24 77
e 24 78
e 24 80
e 24 81
e 24 88
e 24 89
e 24 90
e 24 93
e 24 98
e 24 105
e 24 106
e 24 107
e 24 109
e 24 111
e 24 114
e 24 117
e 24 118
e 24 122
e 24 124
e 24 125
e 24 130
e 24 133
e 24 135
e 24 151
e 24 156
e 24 161
e 24 162
e 24 191
e 24 192
e 24 203
e 24 204
e 24 212
e 24 213
e 24 219
e 24 236
e 24 238
e 24 240
e 24 242
e 25 26
e 25 27
e 25 28
e 25 29
e 25 31
e 25 34
e 25 39
e 25 40
e 25 41
e 25 43
e 25 49
e 25 54
e 25 58
e 25 63
e 25 66
e 25 70
e 25 73
e 25 74
e 25 78
e 25 86
e 25 95
e 25 99
e 25 116
e 25 117
e 25 125
e 25 130
e 25 139
e 25 142
e 25 149
e 25 150
e 25 152
e 25 153
e 25 155
e 25 167
e 25 170
e 25 174
e 25 187
e 25 190
e 25 196
e 25 198
e 25 199
e 25 205
e 25 209
e 25 226
e 25 238
e 25 240
e 25 244
e 25 248
e 26 27
e 26 28
e 26 30
e 26 31
e 26 34
e 26 35
e 26 37
e 26 38
e 26 40
e 26 44
e 26 45
e 26 47
e 26 48
e 26 49
e 26 51
e 26 57
e 26 61
e 26 62
e 26 63
e 26 64
e 26 65
e 26 68
e 26 71
e 26 74
e 26 75
e 26 78
e 26 79
e 26 84
e 26 94
e 26 97
e 26 98
e 26 100
e 26 102
e 26 104
e 26 107
e 26 110
e 26 116
e 26 117
e 26 119
e 26 127
e 26 140
e 26 143
e 26 146
e 26 152
e 26 158
e 26 159
e 26 161
e 26 169
e 26 199
e 26 204
e 26 206
e 26 208
e 26 209
e 26 241
e 26 246
e 26 247
e 27 28
e 27 29
e 27 30
e 27 31
e 27 32
e 27 33
e 27 35
e 27 36
e 27 38
e 27 39
e 27 40
e 27 41
e 27 47
e 27 48
e 27 49
e 27 53
e 27 56
e 27 57
e 27 60
e 27 68
e 27 69
e 27 71
e 27 74
e 27 75
e 27 78
e 27 83
e 27 84
e 27 87
e 27 92
e 27 93
e 27 94
e 27 108
e 27 113
e 27 118
e 27 123
e 27 135
e 27 139
e 27 140
e 27 144
e 27 145
e 27 147
e 27 157
e 27 164
e 27 166
e 27 172
e 27 173
e 27 180
e 27 184
e 27 185
e 27 192
e 27 199
e 27 204
e 27 212
e 27 224
e 27 237
e 27 241
e 27 246
e 27 249
e 28 30
e 28 31
e 28 32
e 28 33
e 28 35
e 28 36
e 28 38
e 28 39
e 28 40
e 28 41
e 28 44
e 28 46
e 28 62
e 28 69
e 28 71
e 28 72
e 28 76
e 28 80
e 28 104
e 28 105
e 28 108
e 28 111
e 28 112
e 28 116
e 28 117
e 28 125
e 28 142
e 28 144
e 28 145
e 28 147
e 28 166
e 28 168
e 28 169
e 28 183
e 28 195
e 28 202
e 28 205
e 28 221
e 28 238
e 28 239
e 28 248
e 28 251
e 28 252
e 29 30
e 29 34
e 29 37
e 29 38
e 29 40
e 29 41
e 29 45
e 29 46
e 29 47
e 29 51
e 29 56
e 29 62
e 29 66
e 29 76
e 29 83
e 29 84
e 29 85
e 29 86
e 29 88
e 29 93
e 29 94
e 29 105
e 29 107
e 29 116
e 29 127
e 29 128
e 29 131
e 29 136
e 29 143
e 29 144
e 29 151
e 29 153
e 29 159
e 29 162
e 29 164
e 29 166
e 29 168
e 29 177
e 29 179
e 29 180
e 29 182
e 29 184
e 29 186
e 29 203
e 29 206
e 29 228
e 29 247
e 29 251
e 30 32
e 30 34
e 30 35
e 30 36
e 30 41
e 30 43
e 30 49
e 30 53
e 30 55
e 30 57
e 30 58
e 30 62
e 30 63
e 30 68
e 30 71
e 30 73
e 30 88
e 30 102
e 30 112
e 30 116
e 30 120
e 30 125
e 30 128
e 30 133
e 30 140
e 30 141
e 30 142
e 30 144
e 30 154
e 30 156
e 30 168
e 30 179
e 30 184
e 30 216
e 30 219
e 30 224
e 30 242
e 31 32
e 31 33
e 31 35
e 31 36
e 31 42
e 31 44
e 31 49
e 31 55
e 31 56
e 31 57
e 31 65
e 31 67
e 31 72
e 31 75
e 31 76
e 31 85
e 31 86
e 31 89
e 31 93
e 31 97
e 31 102
e 31 108
e 31 109
e 31 113
e 31 117
e 31 120
e 31 126
e 31 137
e 31 145
e 31 147
e 31 153
e 31 159
e 31 164
e 31 167
e 31 170
e 31 191
e 31 192
e 31 196
e 31 197
e 31 207
e 31 224
e 31 229
e 31 235
e 31 247
e 31 249
e 31 251
e 32 33
e 32 36
e 32 38
e 32 39
e 32 42
e 32 46
e 32 50
e 32 51
e 32 52
e 32 53
e 32 54
e 32 55
e 32 57
e 32 58
e 32 59
e 32 61
e 32 66
e 32 71
e 32 73
e 32 77
e 32 79
e 32 82
e 32 89
e 32 93
e 32 103
e 32 111
e 32 113
e 32 117
e 32 122
e 32 126
e 32 133
e 32 137
e 32 150
e 32 171
e 32 210
e 32 230
e 32 232
e 32 234
e 32 244
e 32 245
e 33 34
e 33 37
e 33 41
e 33 42
e 33 50
e 33 51
e 33 56
e 33 58
e 33 59
e 33 60
e 33 61
e 33 62
e 33 63
e 33 66
e 33 69
e 33 71
e 33 78
e 33 80
e 33 81
e 33 85
e 33 89
e 33 97
e 33 99
e 33 105
e 33 112
e 33 123
e 33 124
e 33 129
e 33 134
e 33 135
e 33 137
e 33 138
e 33 139
e 33 158
e 33 171
e 33 177
e 33 183
e 33 189
e 33 193
e 33 194
e 33 200
e 33 202
e 33 217
e 33 221
e 33 222
e 33 224
e 33 225
e 33 244
e 33 247
e 33 248
e 33 251
e 34 37
e 34 39
e 34 40
e 34 41
e 34 47
e 34 50
e 34 52
e 34 55
e 34 59
e 34 61
e 34 62
e 34 67
e 34 74
e 34 86
e 34 87
e 34 89
e 34 92
e 34 97
e 34 103
e 34 112
e 34 113
e 34 123
e 34 132
e 34 148
e 34 167
e 34 174
e 34 181
e 34 197
e 34 212
e 34 217
e 34 220
e 34 225
e 34 241
e 34 243
e 34 248
e 34 249
e 35 36
e 35 37
e 35 39
e 35 40
e 35 41
e 35 43
e 35 46
e 35 47
e 35 48
e 35 49
e 35 53
e 35 54
e 35 55
e 35 56
e 35 58
e 35 59
e 35 60
e 35 62
e 35 65
e 35 70
e 35 71
e 35 77
e 35 80
e 35 87
e 35 92
e 35 95
e 35 96
e 35 104
e 35 107
e 35 110
e 35 113
e 35 115
e 35 118
e 35 121
e 35 122
e 35 125
e 35 128
e 35 130
e 35 134
e 35 139
e 35 144
e 35 147
e 35 159
e 35 162
e 35 165
e 35 167
e 35 171
e 35 175
e 35 177
e 35 185
e 35 187
e 35 197
e 35 208
e 35 209
e 35 212
e 35 214
e 35 222
e 35 226
e 35 229
e 35 236
e 35 237
e 35 244
e 36 37
e 36 38
e 36 39
e 36 40
e 36 42
e 36 45
e 36 49
e 36 51
e 36 54
e 36 59
e 36 63
e 36 67
e 36 68
e 36 76
e 36 83
e 36 89
e 36 92
e 36 96
e 36 99
e 36 101
e 36 103
e 36 116
e 36 117
e 36 121
e 36 124
e 36 126
e 36 128
e 36 129
e 36 130
e 36 133
e 36 147
e 36 164
e 36 168
e 36 169
e 36 176
e 36 186
e 36 187
e 36 201
e 36 204
e 36 213
e 36 214
e 36 222
e 36 226
e 36 228
e 36 230
e 36 240
e 36 242
e 36 247
e 36 251
e 37 38
e 37 47
e 37 52
e 37 56
e 37 63
e 37 68
e 37 70
e 37 84
e 37 93
e 37 97
e 37 109
e 37 110
e 37 114
e 37 117
e 37 120
e 37 129
e 37 136
e 37 144
e 37 151
e 37 152
e 37 157
e 37 169
e 37 170
e 37 176
e 37 200
e 37 204
e 37 211
e 37 213
e 37 216
e 37 228
e 37 245
e 37 252
e 38 41
e 38 44
e 38 49
e 38 53
e 38 56
e 38 59
e 38 65
e 38 70
e 38 72
e 38 73
e 38 74
e 38 79
e 38 90
e 38 93
e 38 94
e 38 96
e 38 97
e 38 100
e 38 109
e 38 111
e 38 115
e 38 116
e 38 128
e 38 142
e 38 147
e 38 150
e 38 160
e 38 163
e 38 167
e 38 180
e 38 181
e 38 184
e 38 190
e 38 201
e 38 203
e 38 220
e 38 229
e 38 234
e 38 244
e 38 249
e 39 40
e 39 42
e 39 44
e 39 46
e 39 47
e 39 54
e 39 55
e 39 70
e 39 71
e 39 74
e 39 87
e 39 101
e 39 106
e 39 109
e 39 129
e 39 141
e 39 146
e 39 160
e 39 176
e 39 178
e 39 189
e 39 190
e 39 193
e 39 201
e 39 212
e 39 215
e 39 221
e 39 240
e 39 243
e 39 245
e 39 251
e 40 43
e 40 44
e 40 55
e 40 61
e 40 77
e 40 78
e 40 79
e 40 84
e 40 98
e 40 99
e 40 101
e 40 102
e 40 108
e 40 109
e 40 116
e 40 119
e 40 133
e 40 134
e 40 139
e 40 140
e 40 162
e 40 181
e 40 190
e 40 191
e 40 197
e 40 202
e 40 214
e 40 223
e 40 227
e 40 237
e 40 240
e 40 245
e 41 42
e 41 44
e 41 45
e 41 49
e 41 50
e 41 51
e 41 55
e 41 58
e 41 64
e 41 66
e 41 82
e 41 97
e 41 100
e 41 105
e 41 109
e 41 111
e 41 115
e 41 119
e 41 121
e 41 124
e 41 125
e 41 127
e 41 131
e 41 136
e 41 142
e 41 144
e 41 147
e 41 150
e 41 158
e 41 175
e 41 190
e 41 198
e 41 206
e 41 207
e 41 218
e 41 223
e 41 227
e 41 240
e 41 246
e 41 248
e 42 43
e 42 44
e 42 47
e 42 51
e 42 53
e 42 56
e 42 57
e 42 58
e 42 71
e 42 77
e 42 79
e 42 80
e 42 85
e 42 87
e 42 88
e 42 89
e 42 96
e 42 101
e 42 102
e 42 127
e 42 128
e 42 130
e 42 134
e 42 141
e 42 147
e 42 162
e 42 170
e 42 177
e 42 198
e 42 200
e 42 202
e 42 208
e 42 209
e 42 211
e 42 213
e 42 217
e 42 229
e 42 242
e 42 243
e 43 44
e 43 45
e 43 47
e 43 48
e 43 51
e 43 54
e 43 56
e 43 58
e 43 59
e 43 61
e 43 62
e 43 70
e 43 76
e 43 79
e 43 80
e 43 82
e 43 85
e 43 87
e 43 94
e 43 104
e 43 106
e 43 115
e 43 120
e 43 123
e 43 133
e 43 143
e 43 146
e 43 148
e 43 163
e 43 165
e 43 169
e 43 171
e 43 172
e 43 178
e 43 182
e 43 196
e 43 198
e 43 200
e 43 208
e 43 221
e 43 222
e 43 232
e 43 239
e 44 46
e 44 52
e 44 53
e 44 54
e 44 57
e 44 73
e 44 83
e 44 90
e 44 91
e 44 92
e 44 108
e 44 124
e 44 144
e 44 145
e 44 149
e 44 156
e 44 157
e 44 172
e 44 180
e 44 189
e 44 230
e 44 234
e 44 235
e 44 243
e 45 47
e 45 51
e 45 56
e 45 69
e 45 79
e 45 82
e 45 91
e 45 98
e 45 102
e 45 109
e 45 112
e 45 123
e 45 126
e 45 127
e 45 129
e 45 131
e 45 135
e 45 162
e 45 164
e 45 169
e 45 203
e 45 219
e 45 220
e 45 221
e 45 227
e 45 246
e 45 249
e 45 252
e 46 54
e 46 58
e 46 60
e 46 68
e 46 69
e 46 70
e 46 73
e 46 74
e 46 75
e 46 78
e 46 79
e 46 87
e 46 110
e 46 113
e 46 118
e 46 121
e 46 124
e 46 133
e 46 135
e 46 138
e 46 140
e 46 148
e 46 150
e 46 151
e 46 153
e 46 157
e 46 160
e 46 206
e 46 211
e 46 213
e 46 231
e 46 242
e 46 250
e 47 50
e 47 52
e 47 65
e 47 72
e 47 77
e 47 81
e 47 90
e 47 97
e 47 98
e 47 108
e 47 114
e 47 116
e 47 143
e 47 158
e 47 189
e 47 224
e 47 230
e 47 231
e 47 245
e 48 50
e 48 53
e 48 54
e 48 72
e 48 77
e 48 81
e 48 84
e 48 85
e 48 98
e 48 101
e 48 106
e 48 115
e 48 118
e 48 122
e 48 128
e 48 138
e 48 142
e 48 143
e 48 145
e 48 148
e 48 149
e 48 150
e 48 159
e 48 168
e 48 170
e 48 171
e 48 195
e 48 222
e 48 225
e 48 244
e 48 247
e 49 52
e 49 60
e 49 73
e 49 83
e 49 87
e 49 91
e 49 95
e 49 97
e 49 104
e 49 109
e 49 124
e 49 132
e 49 134
e 49 137
e 49 141
e 49 151
e 49 161
e 49 163
e 49 171
e 49 190
e 50 53
e 50 58
e 50 59
e 50 73
e 50 78
e 50 81
e 50 83
e 50 87
e 50 95
e 50 101
e 50 109
e 50 113
e 50 128
e 50 131
e 50 148
e 50 169
e 50 171
e 50 182
e 50 188
e 50 192
e 50 196
e 50 199
e 50 221
e 50 225
e 50 240
e 50 243
e 51 55
e 51 63
e 51 64
e 51 65
e 51 67
e 51 70
e 51 72
e 51 76
e 51 79
e 51 82
e 51 84
e 51 91
e 51 92
e 51 95
e 51 100
e 51 101
e 51 108
e 51 127
e 51 129
e 51 130
e 51 132
e 51 133
e 51 136
e 51 137
e 51 147
e 51 152
e 51 160
e 51 165
e 51 173
e 51 183
e 51 188
e 51 201
e 51 228
e 52 53
e 52 57
e 52 64
e 52 66
e 52 68
e 52 85
e 52 87
e 52 88
e 52 90
e 52 96
e 52 98
e 52 102
e 52 110
e 52 119
e 52 129
e 52 137
e 52 151
e 52 155
e 52 157
e 52 158
e 52 175
e 52 179
e 52 185
e 52 187
e 52 188
e 52 190
e 52 201
e 52 202
e 52 210
e 52 211
e 52 221
e 52 226
e 52 238
e 52 251
e 53 58
e 53 62
e 53 63
e 53 67
e 53 75
e 53 83
e 53 85
e 53 87
e 53 99
e 53 101
e 53 105
e 53 111
e 53 122
e 53 124
e 53 125
e 53 126
e 53 127
e 53 139
e 53 141
e 53 143
e 53 154
e 53 157
e 53 162
e 53 165
e 53 166
e 53 182
e 53 184
e 53 185
e 53 186
e 53 188
e 53 189
e 53 191
e 53 203
e 53 206
e 53 225
e 53 229
e 53 232
e 53 235
e 53 236
e 54 55
e 54 64
e 54 66
e 54 71
e 54 73
e 54 74
e 54 82
e 54 83
e 54 90
e 54 91
e 54 95
e 54 96
e 54 110
e 54 116
e 54 120
e 54 122
e 54 124
e 54 132
e 54 133
e 54 134
e 54 135
e 54 146
e 54 154
e 54 157
e 54 171
e 54 172
e 54 173
e 54 179
e 54 191
e 54 201
e 54 208
e 54 212
e 54 216
e 54 224
e 54 236
e 54 239
e 54 250
e 55 57
e 55 58
e 55 61
e 55 63
e 55 67
e 55 68
e 55 74
e 55 76
e 55 87
e 55 91
e 55 105
e 55 114
e 55 123
e 55 149
e 55 152
e 55 173
e 55 175
e 55 190
e 55 204
e 55 212
e 55 215
e 55 223
e 55 242
e 56 57
e 56 63
e 56 67
e 56 69
e 56 91
e 56 106
e 56 117
e 56 137
e 56 148
e 56 150
e 56 158
e 56 170
e 56 172
e 56 181
e 56 183
e 56 192
e 56 210
e 56 211
e 56 239
e 56 245
e 56 252
e 57 59
e 57 63
e 57 67
e 57 72
e 57 76
e 57 89
e 57 108
e 57 115
e 57 117
e 57 138
e 57 139
e 57 153
e 57 157
e 57 161
e 57 172
e 57 176
e 57 189
e 57 191
e 57 207
e 57 214
e 57 215
e 57 231
e 58 74
e 58 77
e 58 80
e 58 82
e 58 105
e 58 113
e 58 118
e 58 122
e 58 140
e 58 141
e 58 144
e 58 159
e 58 165
e 58 180
e 58 194
e 58 197
e 58 200
e 58 207
e 58 208
e 58 220
e 58 246
e 59 61
e 59 75
e 59 80
e 59 82
e 59 83
e 59 88
e 59 93
e 59 94
e 59 106
e 59 119
e 59 159
e 59 165
e 59 169
e 59 173
e 59 174
e 59 177
e 59 187
e 59 188
e 59 201
e 59 218
e 59 223
e 59 248
e 60 64
e 60 66
e 60 67
e 60 72
e 60 76
e 60 91
e 60 104
e 60 110
e 60 113
e 60 122
e 60 123
e 60 124
e 60 129
e 60 130
e 60 133
e 60 147
e 60 150
e 60 155
e 60 158
e 60 160
e 60 162
e 60 182
e 60 184
e 60 185
e 60 206
e 60 218
e 60 220
e 60 221
e 60 223
e 60 224
e 60 234
e 60 246
e 61 66
e 61 68
e 61 73
e 61 85
e 61 97
e 61 100
e 61 103
e 61 106
e 61 112
e 61 126
e 61 134
e 61 140
e 61 150
e 61 152
e 61 161
e 61 176
e 61 179
e 61 180
e 61 188
e 61 200
e 61 201
e 61 217
e 61 223
e 61 232
e 61 236
e 61 244
e 61 251
e 62 70
e 62 99
e 62 105
e 62 155
e 62 168
e 62 181
e 62 186
e 62 195
e 62 201
e 62 252
e 63 64
e 63 71
e 63 74
e 63 80
e 63 89
e 63 90
e 63 103
e 63 126
e 63 132
e 63 166
e 63 173
e 63 182
e 63 185
e 63 189
e 63 191
e 63 202
e 63 208
e 63 216
e 63 224
e 63 226
e 63 229
e 63 234
e 63 236
e 63 237
e 63 250
e 64 65
e 64 68
e 64 69
e 64 83
e 64 95
e 64 100
e 64 103
e 64 118
e 64 173
e 64 183
e 64 184
e 64 192
e 64 194
e 64 197
e 64 206
e 65 86
e 65 104
e 65 114
e 65 136
e 65 140
e 65 151
e 65 152
e 65 162
e 65 169
e 65 174
e 65 193
e 65 194
e 65 216
e 65 222
e 65 226
e 65 228
e 65 230
e 65 239
e 65 243
e 65 246
e 66 86
e 66 97
e 66 99
e 66 107
e 66 112
e 66 148
e 66 154
e 66 161
e 66 182
e 66 188
e 66 189
e 66 196
e 66 199
e 66 210
e 66 215
e 66 232
e 66 235
e 66 237
e 66 241
e 67 69
e 67 77
e 67 80
e 67 87
e 67 88
e 67 94
e 67 97
e 67 102
e 67 107
e 67 108
e 67 119
e 67 122
e 67 146
e 67 149
e 67 150
e 67 155
e 67 171
e 67 172
e 67 188
e 67 197
e 67 213
e 67 217
e 67 248
e 67 252
e 68 70
e 68 73
e 68 76
e 68 93
e 68 124
e 68 126
e 68 147
e 68 227
e 69 76
e 69 80
e 69 83
e 69 84
e 69 105
e 69 110
e 69 116
e 69 119
e 69 120
e 69 128
e 69 144
e 69 146
e 69 148
e 69 172
e 69 175
e 69 183
e 69 184
e 69 187
e 69 188
e 69 197
e 69 233
e 70 83
e 70 114
e 70 138
e 70 152
e 70 153
e 70 163
e 70 164
e 70 170
e 70 195
e 70 216
e 70 219
e 70 225
e 70 226
e 70 231
e 70 242
e 71 73
e 71 74
e 71 86
e 71 87
e 71 94
e 71 96
e 71 100
e 71 104
e 71 111
e 71 141
e 71 158
e 71 163
e 71 170
e 71 174
e 71 213
e 71 221
e 71 237
e 71 248
e 72 75
e 72 78
e 72 79
e 72 80
e 72 92
e 72 96
e 72 98
e 72 102
e 72 121
e 72 128
e 72 145
e 72 146
e 72 148
e 72 154
e 72 173
e 72 178
e 72 195
e 73 77
e 73 78
e 73 81
e 73 88
e 73 90
e 73 91
e 73 93
e 73 95
e 73 96
e 73 98
e 73 102
e 73 119
e 73 127
e 73 129
e 73 136
e 73 163
e 73 179
e 73 183
e 73 188
e 73 197
e 73 205
e 73 220
e 73 222
e 73 225
e 74 76
e 74 94
e 74 104
e 74 110
e 74 114
e 74 125
e 74 138
e 74 144
e 74 156
e 74 169
e 74 170
e 74 183
e 74 187
e 74 194
e 74 196
e 74 209
e 74 230
e 74 232
e 75 88
e 75 98
e 75 129
e 75 140
e 75 153
e 75 160
e 75 162
e 75 188
e 75 240
e 75 248
e 76 77
e 76 82
e 76 86
e 76 92
e 76 93
e 76 101
e 76 116
e 76 132
e 76 137
e 76 139
e 76 165
e 76 167
e 76 184
e 76 186
e 76 223
e 76 231
e 77 88
e 77 90
e 77 91
e 77 104
e 77 127
e 77 132
e 77 139
e 77 151
e 77 154
e 77 171
e 77 190
e 77 203
e 77 205
e 77 218
e 77 238
e 78 79
e 78 92
e 78 108
e 78 114
e 78 136
e 78 150
e 78 157
e 78 161
e 78 171
e 78 177
e 78 199
e 78 233
e 78 234
e 78 237
e 79 81
e 79 91
e 79 100
e 79 103
e 79 107
e 79 112
e 79 115
e 79 118
e 79 129
e 79 134
e 79 143
e 79 148
e 79 152
e 79 154
e 79 170
e 79 180
e 79 181
e 79 184
e 79 186
e 79 192
e 79 201
e 79 203
e 79 239
e 80 83
e 80 84
e 80 87
e 80 88
e 80 99
e 80 110
e 80 123
e 80 127
e 80 135
e 80 137
e 80 143
e 80 149
e 80 153
e 80 167
e 80 181
e 80 205
e 80 214
e 80 222
e 80 223
e 81 84
e 81 93
e 81 98
e 81 120
e 81 124
e 81 126
e 81 157
e 81 160
e 81 180
e 81 195
e 81 196
e 81 198
e 81 215
e 81 229
e 81 232
e 81 242
e 81 250
e 82 84
e 82 86
e 82 92
e 82 94
e 82 100
e 82 102
e 82 108
e 82 112
e 82 120
e 82 121
e 82 138
e 82 141
e 82 168
e 82 172
e 82 174
e 82 177
e 82 196
e 82 205
e 82 206
e 82 210
e 82 240
e 83 88
e 83 96
e 83 107
e 83 108
e 83 110
e 83 120
e 83 122
e 83 132
e 83 142
e 83 149
e 83 182
e 83 191
e 83 193
e 83 200
e 83 203
e 83 207
e 83 210
e 83 216
e 83 229
e 83 233
e 83 234
e 83 236
e 83 247
e 84 90
e 84 99
e 84 100
e 84 116
e 84 117
e 84 131
e 84 135
e 84 136
e 84 140
e 84 149
e 84 156
e 84 159
e 84 164
e 84 176
e 84 181
e 84 187
e 84 198
e 84 208
e 84 230
e 85 86
e 85 88
e 85 90
e 85 107
e 85 115
e 85 125
e 85 127
e 85 172
e 85 246
e 86 88
e 86 90
e 86 94
e 86 99
e 86 113
e 86 114
e 86 144
e 86 158
e 86 165
e 86 189
e 86 207
e 86 226
e 86 230
e 86 237
e 87 104
e 87 115
e 87 126
e 87 152
e 87 179
e 87 196
e 87 207
e 87 209
e 87 225
e 87 235
e 88 108
e 88 128
e 88 129
e 88 145
e 88 154
e 88 159
e 88 165
e 88 166
e 88 204
e 88 212
e 88 249
e 89 90
e 89 92
e 89 93
e 89 103
e 89 134
e 89 135
e 89 165
e 89 171
e 89 173
e 89 178
e 89 191
e 89 198
e 89 204
e 89 206
e 89 214
e 89 240
e 90 97
e 90 119
e 90 138
e 90 160
e 90 163
e 90 164
e 90 178
e 90 182
e 90 232
e 90 248
e 91 93
e 91 94
e 91 98
e 91 108
e 91 109
e 91 110
e 91 119
e 91 120
e 91 130
e 91 160
e 91 167
e 91 171
e 91 236
e 92 119
e 92 125
e 92 135
e 92 149
e 92 173
e 92 196
e 92 236
e 92 244
e 93 103
e 93 105
e 93 140
e 93 153
e 93 154
e 93 157
e 93 180
e 93 205
e 93 231
e 93 246
e 94 95
e 94 106
e 94 108
e 94 147
e 94 153
e 94 155
e 94 158
e 94 168
e 94 179
e 94 193
e 94 203
e 94 215
e 94 243
e 95 107
e 95 120
e 95 131
e 95 145
e 95 148
e 95 159
e 95 162
e 95 185
e 95 202
e 95 203
e 95 216
e 95 218
e 95 235
e 95 237
e 95 240
e 95 251
e 96 123
e 96 142
e 96 161
e 96 168
e 96 193
e 96 200
e 96 211
e 96 245
e 96 252
e 97 107
e 97 118
e 97 137
e 97 176
e 97 186
e 97 218
e 97 240
e 98 103
e 98 113
e 98 154
e 98 168
e 98 184
e 98 187
e 98 204
e 98 218
e 98 241
e 99 101
e 99 105
e 99 112
e 99 115
e 99 121
e 99 125
e 99 126
e 99 127
e 99 138
e 99 143
e 99 150
e 99 155
e 99 160
e 99 166
e 99 195
e 99 198
e 99 210
e 99 220
e 99 227
e 99 228
e 99 245
e 100 109
e 100 117
e 100 133
e 100 137
e 100 146
e 100 160
e 100 163
e 100 168
e 100 195
e 100 210
e 100 212
e 100 237
e 101 113
e 101 130
e 101 131
e 101 142
e 101 144
e 101 213
e 101 242
e 101 245
e 102 103
e 102 104
e 102 145
e 102 157
e 102 163
e 102 175
e 102 177
e 102 179
e 102 182
e 102 185
e 102 186
e 102 191
e 102 194
e 102 196
e 103 140
e 103 171
e 103 183
e 103 184
e 103 185
e 103 204
e 103 213
e 103 217
e 103 242
e 104 125
e 104 146
e 104 156
e 104 160
e 104 165
e 104 186
e 104 189
e 104 214
e 104 217
e 104 219
e 104 234
e 104 247
e 105 121
e 105 166
e 105 183
e 105 197
e 105 235
e 106 118
e 106 126
e 106 134
e 106 159
e 106 167
e 106 182
e 106 217
e 106 233
e 106 241
e 106 246
e 107 155
e 107 163
e 107 176
e 107 177
e 107 198
e 107 206
e 107 211
e 107 223
e 107 228
e 108 141
e 108 143
e 108 147
e 108 150
e 108 161
e 108 163
e 108 175
e 108 194
e 108 215
e 108 223
e 108 229
e 109 114
e 109 124
e 109 131
e 109 163
e 109 178
e 109 190
e 109 199
e 109 205
e 109 206
e 109 224
e 109 226
e 109 236
e 109 249
e 110 114
e 110 136
e 110 142
e 110 178
e 111 121
e 111 123
e 111 154
e 111 161
e 111 175
e 111 176
e 111 177
e 111 178
e 111 180
e 111 194
e 111 195
e 111 201
e 111 232
e 112 118
e 112 145
e 112 209
e 112 211
e 112 229
e 112 240
e 113 114
e 113 149
e 113 167
e 113 181
e 113 203
e 113 219
e 113 230
e 113 248
e 114 115
e 114 118
e 114 138
e 114 143
e 114 157
e 114 164
e 114 177
e 114 186
e 114 193
e 114 211
e 114 213
e 114 226
e 114 230
e 114 232
e 115 127
e 115 129
e 115 130
e 115 146
e 115 189
e 115 197
e 115 226
e 115 236
e 115 239
e 116 123
e 116 135
e 116 160
e 116 162
e 116 165
e 116 184
e 116 195
e 116 198
e 116 199
e 116 209
e 116 221
e 116 229
e 116 244
e 116 252
e 117 140
e 117 143
e 117 146
e 117 153
e 117 156
e 117 160
e 117 167
e 117 213
e 117 216
e 117 217
e 117 223
e 118 132
e 118 134
e 118 137
e 118 143
e 118 147
e 118 152
e 118 183
e 118 185
e 118 194
e 118 206
e 118 209
e 118 215
e 118 228
e 118 237
e 118 243
e 119 147
e 119 156
e 119 175
e 119 222
e 119 224
e 119 233
e 120 134
e 120 139
e 120 194
e 120 207
e 120 249
e 121 125
e 121 191
e 121 193
e 121 220
e 121 243
e 122 123
e 122 130
e 122 131
e 122 134
e 122 135
e 122 156
e 122 164
e 122 173
e 122 174
e 122 181
e 122 205
e 122 234
e 123 148
e 123 149
e 123 168
e 123 196
e 123 197
e 123 198
e 123 209
e 123 214
e 123 250
e 124 130
e 124 156
e 124 243
e 124 245
e 125 132
e 125 143
e 125 148
e 125 149
e 125 152
e 125 153
e 125 154
e 125 170
e 125 190
e 126 155
e 126 189
e 126 233
e 126 243
e 127 136
e 127 159
e 127 162
e 127 170
e 127 207
e 128 136
e 128 138
e 128 144
e 128 153
e 128 177
e 128 181
e 128 197
e 128 207
e 128 213
e 128 215
e 129 131
e 129 139
e 129 188
e 129 210
e 130 139
e 130 146
e 130 149
e 130 161
e 130 171
e 130 190
e 130 237
e 131 138
e 131 151
e 131 181
e 131 231
e 131 245
e 132 141
e 132 142
e 132 145
e 132 153
e 132 154
e 132 166
e 132 194
e 132 198
e 132 206
e 133 167
e 133 169
e 133 182
e 133 205
e 133 211
e 133 217
e 133 226
e 133 235
e 133 240
e 134 135
e 134 171
e 134 203
e 134 214
e 134 228
e 134 238
e 134 250
e 135 141
e 135 153
e 135 158
e 135 184
e 135 246
e 136 178
e 136 222
e 136 240
e 137 141
e 137 143
e 137 164
e 137 172
e 137 176
e 137 177
e 137 178
e 137 192
e 137 199
e 137 201
e 137 224
e 137 227
e 137 234
e 137 237
e 138 172
e 138 175
e 138 200
e 138 249
e 139 140
e 139 141
e 139 150
e 139 224
e 139 232
e 139 233
e 140 170
e 140 183
e 140 213
e 140 250
e 141 151
e 141 161
e 141 199
e 141 200
e 141 205
e 142 169
e 142 198
e 142 243
e 143 170
e 143 187
e 143 220
e 144 145
e 144 149
e 144 151
e 144 154
e 144 160
e 144 188
e 144 212
e 144 225
e 144 231
e 144 238
e 145 173
e 145 222
e 146 197
e 146 219
e 146 224
e 147 164
e 147 212
e 148 176
e 148 179
e 148 180
e 148 183
e 148 195
e 148 200
e 148 223
e 148 237
e 148 241
e 148 247
e 149 158
e 149 192
e 149 194
e 149 234
e 150 170
e 150 222
e 150 225
e 150 233
e 150 245
e 151 156
e 151 166
e 151 167
e 152 161
e 152 174
e 153 165
e 153 222
e 153 226
e 153 248
e 153 250
e 154 209
e 154 210
e 154 221
e 155 175
e 155 179
e 155 210
e 155 214
e 155 215
e 156 168
e 156 174
e 157 162
e 157 193
e 157 212
e 157 215
e 157 239
e 158 159
e 158 164
e 158 170
e 158 176
e 158 202
e 158 227
e 159 169
e 159 184
e 159 188
e 159 217
e 159 246
e 160 186
e 160 188
e 160 193
e 160 207
e 160 217
e 160 234
e 160 243
e 160 248
e 161 168
e 161 173
e 161 195
e 162 168
e 162 190
e 162 219
e 162 234
e 162 245
e 162 250
e 163 174
e 163 185
e 163 221
e 164 167
e 164 181
e 164 193
e 164 194
e 164 195
e 164 212
e 165 166
e 165 202
e 165 211
e 165 233
e 165 241
e 166 175
e 166 178
e 166 192
e 168 197
e 168 225
e 169 211
e 169 214
e 169 222
e 169 231
e 169 238
e 169 241
e 169 250
e 170 186
e 170 220
e 171 180
e 171 211
e 171 219
e 172 175
e 172 187
e 172 211
e 172 213
e 172 218
e 172 222
e 172 244
e 173 195
e 173 241
e 174 195
e 174 242
e 175 219
e 175 231
e 175 242
e 175 249
e 176 177
e 176 190
e 176 207
e 176 210
e 176 229
e 177 192
e 177 203
e 177 232
e 178 187
e 178 207
e 178 224
e 179 199
e 179 208
e 179 220
e 179 226
e 179 243
e 180 199
e 180 229
e 180 244
e 182 192
e 182 210
e 182 216
e 182 218
e 182 219
e 182 239
e 183 197
e 183 235
e 184 186
e 184 205
e 184 212
e 184 219
e 184 249
e 185 204
e 185 216
e 185 235
e 185 251
e 186 208
e 186 223
e 187 189
e 187 220
e 187 236
e 187 243
e 187 250
e 188 191
e 188 205
e 188 206
e 188 215
e 188 218
e 188 224
e 188 226
e 188 231
e 188 252
e 189 214
e 189 249
e 190 225
e 191 201
e 191 203
e 191 215
e 191 219
e 191 228
e 191 233
e 191 238
e 191 241
e 192 194
e 192 200
e 192 202
e 192 247
e 193 196
e 193 225
e 194 203
e 195 218
e 195 221
e 195 235
e 195 239
e 196 236
e 197 204
e 197 205
e 197 212
e 197 219
e 197 227
e 197 235
e 197 251
e 198 210
e 198 215
e 198 223
e 198 235
e 198 243
e 198 246
e 198 250
e 199 209
e 199 250
e 199 251
e 200 208
e 200 213
e 201 202
e 201 214
e 201 231
e 201 242
e 201 252
e 202 210
e 202 217
e 202 248
e 203 231
e 204 220
e 204 227
e 204 228
e 204 238
e 206 218
e 208 231
e 208 236
e 211 214
e 211 216
e 211 239
e 212 227
e 212 238
e 213 214
e 214 215
e 215 236
e 216 252
e 217 224
e 218 232
e 219 235
e 219 252
e 220 227
e 220 251
e 221 237
e 222 249
e 223 225
e 223 244
e 224 227
e 224 245
e 225 249
e 227 230
e 228 229
e 229 239
e 229 245
e 229 246
e 229 247
e 230 247
e 231 248
e 232 242
e 236 238
e 237 250
e 248 251
